156
1000
348
308
338
3
512
11
409
110
81
311
126
149
209
523
424
534
333
308
225
554
297
340
720
459
322
467
341
37
51
279
166
344
280
526
477
61
108
345
256
269
27
27
744
537
182
246
367
507
587
75
46
236
264
424
150
191
290
667
679
447
158
188
392
174
274
427
540
399
140
234
87
182
242
718
76
84
63
518
145
1
129
138
353
326
504
322
128
500
144
139
36
305
270
706
490
174
279
663
6
96
125
153
148
262
439
596
456
110
53
503
276
727
130
190
18
282
359
179
193
562
489
235
251
180
5
463
549
429
192
330
75
374
346
509
184
337
29
488
108
124
8
147
51
406
220
93
553
367
118
466
227
608
17
114
677
66
